NAME : n80w60.005.695.tour
COMMENT : Length = 695
COMMENT : Found by LKH [Keld Helsgaun] Tue Nov  7 19:36:28 2017
TYPE : TOUR
DIMENSION : 81
TOUR_SECTION
1
17
53
44
27
4
73
65
13
76
64
21
10
69
29
47
54
14
80
9
36
71
75
57
38
20
23
55
43
77
50
40
35
15
67
59
37
46
70
12
18
26
41
8
3
5
31
48
42
66
30
28
39
51
2
24
19
49
6
56
79
22
72
62
58
68
33
78
25
60
63
45
34
11
61
52
16
74
7
81
32
-1
EOF
